#input script for granular ellipsoid simulation
units micro
atom_style sphere 

read_data data.grain

#perform constant NVE integration to update velocity and position. 
fix 1 all gravity 100.0 chute 24.0

comm_modify vel yes

pair_style gran/hooke 200000.0 70000.0 50.0 30.0 0.5 0 limit_damping
pair_coeff * *

dump		2 all image 1000 image.*.jpg type type &
#		zoom 1.6 adiam 1.5 body type 1.0 0
#dump_modify    2 pad 5

thermo      100
run		10000

